p wcnf 165 248 249 
1 -62 135 0 
1 -16 82 0 
1 -79 17 0 
1 -45 -16 0 
1 145 97 0 
1 -110 159 0 
1 162 80 0 
1 -72 162 0 
1 -115 154 0 
1 157 -73 0 
1 26 129 0 
1 70 130 0 
1 140 -17 0 
1 30 -143 0 
1 40 -104 0 
1 20 37 0 
1 155 -152 0 
1 -36 -38 0 
1 -111 -80 0 
1 -163 -132 0 
1 -44 -95 0 
1 -49 -124 0 
1 95 -26 0 
1 65 -124 0 
1 -105 -38 0 
1 65 -46 0 
1 43 -100 0 
1 -63 154 0 
1 94 159 0 
1 24 -17 0 
1 135 165 0 
1 -45 32 0 
1 -153 -34 0 
1 101 39 0 
1 40 160 0 
1 -15 -140 0 
1 -116 -138 0 
1 28 6 0 
1 -44 55 0 
1 113 134 0 
1 131 43 0 
1 -128 113 0 
1 129 -34 0 
1 157 -15 0 
1 -102 137 0 
1 -83 -130 0 
1 -74 -70 0 
1 121 -54 0 
1 63 86 0 
1 -141 -71 0 
1 144 -5 0 
1 117 78 0 
1 -76 134 0 
1 154 -6 0 
1 75 -22 0 
1 42 161 0 
1 164 -41 0 
1 -19 14 0 
1 61 59 0 
1 98 -149 0 
1 31 102 0 
1 72 126 0 
1 -59 -83 0 
1 91 -122 0 
1 -21 -125 0 
1 -70 -121 0 
1 -80 -113 0 
1 48 98 0 
1 116 -39 0 
1 31 64 0 
1 64 80 0 
1 -136 140 0 
1 30 -41 0 
1 -41 130 0 
1 77 72 0 
1 87 -93 0 
1 -8 43 0 
1 -134 107 0 
1 45 -11 0 
1 -117 162 0 
1 61 -28 0 
1 84 -44 0 
1 144 57 0 
1 158 -111 0 
1 -21 -121 0 
1 -75 -70 0 
1 -75 165 0 
1 124 8 0 
1 -154 -121 0 
1 138 -32 0 
1 -5 127 0 
1 -82 -147 0 
1 -146 14 0 
1 -150 -26 0 
1 73 119 0 
1 104 111 0 
1 -133 -41 0 
1 -20 -147 0 
1 14 -24 0 
1 19 -114 0 
1 60 -59 0 
1 119 152 0 
1 141 -40 0 
1 51 -95 0 
1 142 11 0 
1 14 79 0 
1 -52 -43 0 
1 -72 -131 0 
1 117 141 0 
1 74 77 0 
1 -88 -17 0 
1 62 -4 0 
1 -148 -97 0 
1 -79 -9 0 
1 42 54 0 
1 35 -82 0 
1 -83 165 0 
1 21 20 0 
1 157 43 0 
1 132 -157 0 
1 9 47 0 
1 59 97 0 
1 -122 -37 0 
1 -15 90 0 
1 112 102 0 
1 97 87 0 
1 -29 147 0 
1 97 64 0 
1 6 -19 0 
1 -76 141 0 
1 19 -36 0 
1 -137 -129 0 
1 126 -101 0 
1 18 -41 0 
1 159 80 0 
1 -27 60 0 
1 153 -42 0 
1 154 41 0 
1 -13 -44 0 
1 -125 -114 0 
1 96 -131 0 
1 58 -133 0 
1 -125 19 0 
1 22 -161 0 
1 148 -133 0 
1 96 86 0 
1 156 -147 0 
1 103 72 0 
1 -125 -147 0 
1 55 116 0 
1 -151 -83 0 
1 -45 5 0 
1 122 -99 0 
1 43 4 0 
1 -5 -42 0 
1 128 -27 0 
1 -15 -64 0 
1 -80 -126 0 
1 42 -137 0 
1 2 29 0 
1 -165 83 0 
1 97 136 0 
1 14 59 0 
1 -29 -161 0 
1 162 141 0 
1 -135 -72 0 
1 5 15 0 
1 -59 73 0 
1 -165 155 0 
1 109 78 0 
1 -102 -70 0 
1 -86 96 0 
1 88 104 0 
1 44 92 0 
1 75 35 0 
1 -96 -76 0 
1 -109 -41 0 
1 -1 165 0 
1 -146 153 0 
1 86 96 0 
1 -127 -66 0 
1 -76 151 0 
1 9 128 0 
1 -100 -87 0 
1 104 51 0 
1 43 -113 0 
1 -109 67 0 
1 5 -26 0 
1 -61 165 0 
1 44 -97 0 
1 6 10 0 
1 89 -72 0 
1 -97 64 0 
1 69 -83 0 
1 143 -73 0 
1 -75 153 0 
1 -139 -76 0 
1 142 68 0 
1 -147 44 0 
1 -91 6 0 
1 154 -99 0 
1 11 102 0 
1 160 -145 0 
1 128 121 0 
1 -78 109 0 
1 80 -154 0 
1 -34 41 0 
1 -88 53 0 
1 -80 162 0 
1 99 34 0 
1 -83 -84 0 
1 -90 -63 0 
1 -38 -4 0 
1 -17 14 0 
1 -55 138 0 
1 -141 62 0 
1 148 -48 0 
1 -119 53 0 
1 144 118 0 
1 115 -52 0 
1 54 34 0 
1 105 80 0 
1 40 152 0 
1 156 21 0 
1 44 -153 0 
1 -159 133 0 
1 53 9 0 
1 165 82 0 
1 100 138 0 
1 16 7 0 
1 106 -55 0 
1 -162 86 0 
1 52 6 0 
1 -151 -85 0 
1 131 -6 0 
1 146 36 0 
1 -25 104 0 
1 45 -121 0 
1 -34 -14 0 
1 -5 18 0 
1 64 -20 0 
1 -78 96 0 
1 151 111 0 
1 134 54 0 
1 11 122 0 
1 99 -88 0 
1 34 139 0 
1 93 -158 0 
